p cnf 1774
-24 -556
-25 -559
-26 -562
-27 -565
-28 -568
-29 -571
-30 -574
-31 -577
-32 -580
-33 -583
-34 -586
-35 -589
-36 -592
-37 -595
-38 -598
-39 -601
-40 -604
-41 -607
-42 -610
-43 -613
-44 -616
-45 -619
-46 -622
-47 623
-48 624
-49 625
-50 626
-51 627
-52 628
-53 629
-54 630
-55 631
-56 632
-57 633
-58 634
-59 635
-60 636
-61 637
-62 638
-63 -25
-63 -26
25 26 63
-64 -27
-64 -28
27 28 64
-65 -29
-65 -30
29 30 65
-66 -31
-66 -32
31 32 66
-67 -33
-67 -34
33 34 67
-68 -35
-68 -36
35 36 68
-69 -37
-69 -38
37 38 69
-70 -39
-70 -40
39 40 70
-71 -41
-71 -42
41 42 71
-72 -43
-72 -44
43 44 72
-73 -45
-73 -46
45 46 73
-74 -47
-74 -48
47 48 74
-75 -49
-75 -50
49 50 75
-76 -51
-76 -52
51 52 76
-77 -53
-77 -54
53 54 77
-78 -55
-78 -56
55 56 78
-79 -57
-79 -58
57 58 79
-80 -59
-80 -60
59 60 80
-81 -61
-81 -62
61 62 81
-82 63
-82 64
-63 -64 82
-83 65
-83 66
-65 -66 83
-84 67
-84 68
-67 -68 84
-85 69
-85 70
-69 -70 85
-86 71
-86 72
-71 -72 86
-87 73
-87 74
-73 -74 87
-88 75
-88 76
-75 -76 88
-89 77
-89 78
-77 -78 89
-90 79
-90 80
-79 -80 90
-91 82
-91 83
-82 -83 91
-92 84
-92 85
-84 -85 92
-93 86
-93 87
-86 -87 93
-94 88
-94 89
-88 -89 94
-95 81
-95 90
-81 -90 95
-96 91
-96 92
-91 -92 96
-97 93
-97 94
-93 -94 97
-98 96
-98 97
-96 -97 98
-99 95
-99 98
-95 -98 99
-100 -24
-100 25
24 -25 100
-101 24
-101 -25
-24 25 101
-102 -100
-102 -101
100 101 102
-103 24
-103 25
-24 -25 103
-104 -24
-104 -102
24 102 104
-105 24
-105 102
-24 -102 105
-106 -104
-106 -105
104 105 106
-107 24
-107 -102
-24 102 107
-108 -103
-108 -107
103 107 108
-109 -25
-109 26
25 -26 109
-110 25
-110 -26
-25 26 110
-111 -109
-111 -110
109 110 111
-112 25
-112 26
-25 -26 112
-113 108
-113 -111
-108 111 113
-114 -108
-114 111
108 -111 114
-115 -113
-115 -114
113 114 115
-116 -108
-116 -111
108 111 116
-117 -112
-117 -116
112 116 117
-118 -26
-118 27
26 -27 118
-119 26
-119 -27
-26 27 119
-120 -118
-120 -119
118 119 120
-121 26
-121 27
-26 -27 121
-122 117
-122 -120
-117 120 122
-123 -117
-123 120
117 -120 123
-124 -122
-124 -123
122 123 124
-125 -117
-125 -120
117 120 125
-126 -121
-126 -125
121 125 126
-127 -27
-127 28
27 -28 127
-128 27
-128 -28
-27 28 128
-129 -127
-129 -128
127 128 129
-130 27
-130 28
-27 -28 130
-131 126
-131 -129
-126 129 131
-132 -126
-132 129
126 -129 132
-133 -131
-133 -132
131 132 133
-134 -126
-134 -129
126 129 134
-135 -130
-135 -134
130 134 135
-136 -28
-136 29
28 -29 136
-137 28
-137 -29
-28 29 137
-138 -136
-138 -137
136 137 138
-139 28
-139 29
-28 -29 139
-140 135
-140 -138
-135 138 140
-141 -135
-141 138
135 -138 141
-142 -140
-142 -141
140 141 142
-143 -135
-143 -138
135 138 143
-144 -139
-144 -143
139 143 144
-145 -29
-145 30
29 -30 145
-146 29
-146 -30
-29 30 146
-147 -145
-147 -146
145 146 147
-148 29
-148 30
-29 -30 148
-149 144
-149 -147
-144 147 149
-150 -144
-150 147
144 -147 150
-151 -149
-151 -150
149 150 151
-152 -144
-152 -147
144 147 152
-153 -148
-153 -152
148 152 153
-154 -30
-154 31
30 -31 154
-155 30
-155 -31
-30 31 155
-156 -154
-156 -155
154 155 156
-157 30
-157 31
-30 -31 157
-158 153
-158 -156
-153 156 158
-159 -153
-159 156
153 -156 159
-160 -158
-160 -159
158 159 160
-161 -153
-161 -156
153 156 161
-162 -157
-162 -161
157 161 162
-163 -31
-163 32
31 -32 163
-164 31
-164 -32
-31 32 164
-165 -163
-165 -164
163 164 165
-166 31
-166 32
-31 -32 166
-167 162
-167 -165
-162 165 167
-168 -162
-168 165
162 -165 168
-169 -167
-169 -168
167 168 169
-170 -162
-170 -165
162 165 170
-171 -166
-171 -170
166 170 171
-172 -32
-172 33
32 -33 172
-173 32
-173 -33
-32 33 173
-174 -172
-174 -173
172 173 174
-175 32
-175 33
-32 -33 175
-176 171
-176 -174
-171 174 176
-177 -171
-177 174
171 -174 177
-178 -176
-178 -177
176 177 178
-179 -171
-179 -174
171 174 179
-180 -175
-180 -179
175 179 180
-181 -33
-181 34
33 -34 181
-182 33
-182 -34
-33 34 182
-183 -181
-183 -182
181 182 183
-184 33
-184 34
-33 -34 184
-185 180
-185 -183
-180 183 185
-186 -180
-186 183
180 -183 186
-187 -185
-187 -186
185 186 187
-188 -180
-188 -183
180 183 188
-189 -184
-189 -188
184 188 189
-190 -34
-190 35
34 -35 190
-191 34
-191 -35
-34 35 191
-192 -190
-192 -191
190 191 192
-193 34
-193 35
-34 -35 193
-194 189
-194 -192
-189 192 194
-195 -189
-195 192
189 -192 195
-196 -194
-196 -195
194 195 196
-197 -189
-197 -192
189 192 197
-198 -193
-198 -197
193 197 198
-199 -35
-199 36
35 -36 199
-200 35
-200 -36
-35 36 200
-201 -199
-201 -200
199 200 201
-202 35
-202 36
-35 -36 202
-203 198
-203 -201
-198 201 203
-204 -198
-204 201
198 -201 204
-205 -203
-205 -204
203 204 205
-206 -198
-206 -201
198 201 206
-207 -202
-207 -206
202 206 207
-208 -36
-208 37
36 -37 208
-209 36
-209 -37
-36 37 209
-210 -208
-210 -209
208 209 210
-211 36
-211 37
-36 -37 211
-212 207
-212 -210
-207 210 212
-213 -207
-213 210
207 -210 213
-214 -212
-214 -213
212 213 214
-215 -207
-215 -210
207 210 215
-216 -211
-216 -215
211 215 216
-217 -37
-217 38
37 -38 217
-218 37
-218 -38
-37 38 218
-219 -217
-219 -218
217 218 219
-220 37
-220 38
-37 -38 220
-221 216
-221 -219
-216 219 221
-222 -216
-222 219
216 -219 222
-223 -221
-223 -222
221 222 223
-224 -216
-224 -219
216 219 224
-225 -220
-225 -224
220 224 225
-226 -38
-226 39
38 -39 226
-227 38
-227 -39
-38 39 227
-228 -226
-228 -227
226 227 228
-229 38
-229 39
-38 -39 229
-230 225
-230 -228
-225 228 230
-231 -225
-231 228
225 -228 231
-232 -230
-232 -231
230 231 232
-233 -225
-233 -228
225 228 233
-234 -229
-234 -233
229 233 234
-235 -39
-235 40
39 -40 235
-236 39
-236 -40
-39 40 236
-237 -235
-237 -236
235 236 237
-238 39
-238 40
-39 -40 238
-239 234
-239 -237
-234 237 239
-240 -234
-240 237
234 -237 240
-241 -239
-241 -240
239 240 241
-242 -234
-242 -237
234 237 242
-243 -238
-243 -242
238 242 243
-244 -40
-244 41
40 -41 244
-245 40
-245 -41
-40 41 245
-246 -244
-246 -245
244 245 246
-247 40
-247 41
-40 -41 247
-248 243
-248 -246
-243 246 248
-249 -243
-249 246
243 -246 249
-250 -248
-250 -249
248 249 250
-251 -243
-251 -246
243 246 251
-252 -247
-252 -251
247 251 252
-253 -41
-253 42
41 -42 253
-254 41
-254 -42
-41 42 254
-255 -253
-255 -254
253 254 255
-256 41
-256 42
-41 -42 256
-257 252
-257 -255
-252 255 257
-258 -252
-258 255
252 -255 258
-259 -257
-259 -258
257 258 259
-260 -252
-260 -255
252 255 260
-261 -256
-261 -260
256 260 261
-262 -42
-262 43
42 -43 262
-263 42
-263 -43
-42 43 263
-264 -262
-264 -263
262 263 264
-265 42
-265 43
-42 -43 265
-266 261
-266 -264
-261 264 266
-267 -261
-267 264
261 -264 267
-268 -266
-268 -267
266 267 268
-269 -261
-269 -264
261 264 269
-270 -265
-270 -269
265 269 270
-271 -43
-271 44
43 -44 271
-272 43
-272 -44
-43 44 272
-273 -271
-273 -272
271 272 273
-274 43
-274 44
-43 -44 274
-275 270
-275 -273
-270 273 275
-276 -270
-276 273
270 -273 276
-277 -275
-277 -276
275 276 277
-278 -270
-278 -273
270 273 278
-279 -274
-279 -278
274 278 279
-280 -44
-280 45
44 -45 280
-281 44
-281 -45
-44 45 281
-282 -280
-282 -281
280 281 282
-283 44
-283 45
-44 -45 283
-284 279
-284 -282
-279 282 284
-285 -279
-285 282
279 -282 285
-286 -284
-286 -285
284 285 286
-287 -279
-287 -282
279 282 287
-288 -283
-288 -287
283 287 288
-289 -45
-289 46
45 -46 289
-290 45
-290 -46
-45 46 290
-291 -289
-291 -290
289 290 291
-292 45
-292 46
-45 -46 292
-293 288
-293 -291
-288 291 293
-294 -288
-294 291
288 -291 294
-295 -293
-295 -294
293 294 295
-296 -288
-296 -291
288 291 296
-297 -292
-297 -296
292 296 297
-298 -46
-298 47
46 -47 298
-299 46
-299 -47
-46 47 299
-300 -298
-300 -299
298 299 300
-301 46
-301 47
-46 -47 301
-302 297
-302 -300
-297 300 302
-303 -297
-303 300
297 -300 303
-304 -302
-304 -303
302 303 304
-305 -297
-305 -300
297 300 305
-306 -301
-306 -305
301 305 306
-307 -47
-307 48
47 -48 307
-308 47
-308 -48
-47 48 308
-309 -307
-309 -308
307 308 309
-310 47
-310 48
-47 -48 310
-311 306
-311 -309
-306 309 311
-312 -306
-312 309
306 -309 312
-313 -311
-313 -312
311 312 313
-314 -306
-314 -309
306 309 314
-315 -310
-315 -314
310 314 315
-316 -48
-316 49
48 -49 316
-317 48
-317 -49
-48 49 317
-318 -316
-318 -317
316 317 318
-319 48
-319 49
-48 -49 319
-320 315
-320 -318
-315 318 320
-321 -315
-321 318
315 -318 321
-322 -320
-322 -321
320 321 322
-323 -315
-323 -318
315 318 323
-324 -319
-324 -323
319 323 324
-325 -49
-325 50
49 -50 325
-326 49
-326 -50
-49 50 326
-327 -325
-327 -326
325 326 327
-328 49
-328 50
-49 -50 328
-329 324
-329 -327
-324 327 329
-330 -324
-330 327
324 -327 330
-331 -329
-331 -330
329 330 331
-332 -324
-332 -327
324 327 332
-333 -328
-333 -332
328 332 333
-334 -50
-334 51
50 -51 334
-335 50
-335 -51
-50 51 335
-336 -334
-336 -335
334 335 336
-337 50
-337 51
-50 -51 337
-338 333
-338 -336
-333 336 338
-339 -333
-339 336
333 -336 339
-340 -338
-340 -339
338 339 340
-341 -333
-341 -336
333 336 341
-342 -337
-342 -341
337 341 342
-343 -51
-343 52
51 -52 343
-344 51
-344 -52
-51 52 344
-345 -343
-345 -344
343 344 345
-346 51
-346 52
-51 -52 346
-347 342
-347 -345
-342 345 347
-348 -342
-348 345
342 -345 348
-349 -347
-349 -348
347 348 349
-350 -342
-350 -345
342 345 350
-351 -346
-351 -350
346 350 351
-352 -52
-352 53
52 -53 352
-353 52
-353 -53
-52 53 353
-354 -352
-354 -353
352 353 354
-355 52
-355 53
-52 -53 355
-356 351
-356 -354
-351 354 356
-357 -351
-357 354
351 -354 357
-358 -356
-358 -357
356 357 358
-359 -351
-359 -354
351 354 359
-360 -355
-360 -359
355 359 360
-361 -53
-361 54
53 -54 361
-362 53
-362 -54
-53 54 362
-363 -361
-363 -362
361 362 363
-364 53
-364 54
-53 -54 364
-365 360
-365 -363
-360 363 365
-366 -360
-366 363
360 -363 366
-367 -365
-367 -366
365 366 367
-368 -360
-368 -363
360 363 368
-369 -364
-369 -368
364 368 369
-370 -54
-370 55
54 -55 370
-371 54
-371 -55
-54 55 371
-372 -370
-372 -371
370 371 372
-373 54
-373 55
-54 -55 373
-374 369
-374 -372
-369 372 374
-375 -369
-375 372
369 -372 375
-376 -374
-376 -375
374 375 376
-377 -369
-377 -372
369 372 377
-378 -373
-378 -377
373 377 378
-379 -55
-379 56
55 -56 379
-380 55
-380 -56
-55 56 380
-381 -379
-381 -380
379 380 381
-382 55
-382 56
-55 -56 382
-383 378
-383 -381
-378 381 383
-384 -378
-384 381
378 -381 384
-385 -383
-385 -384
383 384 385
-386 -378
-386 -381
378 381 386
-387 -382
-387 -386
382 386 387
-388 -56
-388 57
56 -57 388
-389 56
-389 -57
-56 57 389
-390 -388
-390 -389
388 389 390
-391 56
-391 57
-56 -57 391
-392 387
-392 -390
-387 390 392
-393 -387
-393 390
387 -390 393
-394 -392
-394 -393
392 393 394
-395 -387
-395 -390
387 390 395
-396 -391
-396 -395
391 395 396
-397 -57
-397 58
57 -58 397
-398 57
-398 -58
-57 58 398
-399 -397
-399 -398
397 398 399
-400 57
-400 58
-57 -58 400
-401 396
-401 -399
-396 399 401
-402 -396
-402 399
396 -399 402
-403 -401
-403 -402
401 402 403
-404 -396
-404 -399
396 399 404
-405 -400
-405 -404
400 404 405
-406 -58
-406 59
58 -59 406
-407 58
-407 -59
-58 59 407
-408 -406
-408 -407
406 407 408
-409 58
-409 59
-58 -59 409
-410 405
-410 -408
-405 408 410
-411 -405
-411 408
405 -408 411
-412 -410
-412 -411
410 411 412
-413 -405
-413 -408
405 408 413
-414 -409
-414 -413
409 413 414
-415 -59
-415 60
59 -60 415
-416 59
-416 -60
-59 60 416
-417 -415
-417 -416
415 416 417
-418 59
-418 60
-59 -60 418
-419 414
-419 -417
-414 417 419
-420 -414
-420 417
414 -417 420
-421 -419
-421 -420
419 420 421
-422 -414
-422 -417
414 417 422
-423 -418
-423 -422
418 422 423
-424 -60
-424 61
60 -61 424
-425 60
-425 -61
-60 61 425
-426 -424
-426 -425
424 425 426
-427 60
-427 61
-60 -61 427
-428 423
-428 -426
-423 426 428
-429 -423
-429 426
423 -426 429
-430 -428
-430 -429
428 429 430
-431 -423
-431 -426
423 426 431
-432 -427
-432 -431
427 431 432
-433 -61
-433 62
61 -62 433
-434 61
-434 -62
-61 62 434
-435 -433
-435 -434
433 434 435
-436 61
-436 62
-61 -62 436
-437 432
-437 -435
-432 435 437
-438 -432
-438 435
432 -435 438
-439 -437
-439 -438
437 438 439
-440 -432
-440 -435
432 435 440
-441 -436
-441 -440
436 440 441
-442 24
-442 -106
-24 106 442
-443 -24
-443 26
24 -26 443
-444 -442
-444 -443
442 443 444
-445 24
-445 -115
-24 115 445
-446 -24
-446 27
24 -27 446
-447 -445
-447 -446
445 446 447
-448 24
-448 -124
-24 124 448
-449 -24
-449 28
24 -28 449
-450 -448
-450 -449
448 449 450
-451 24
-451 -133
-24 133 451
-452 -24
-452 29
24 -29 452
-453 -451
-453 -452
451 452 453
-454 24
-454 -142
-24 142 454
-455 -24
-455 30
24 -30 455
-456 -454
-456 -455
454 455 456
-457 24
-457 -151
-24 151 457
-458 -24
-458 31
24 -31 458
-459 -457
-459 -458
457 458 459
-460 24
-460 -160
-24 160 460
-461 -24
-461 32
24 -32 461
-462 -460
-462 -461
460 461 462
-463 24
-463 -169
-24 169 463
-464 -24
-464 33
24 -33 464
-465 -463
-465 -464
463 464 465
-466 24
-466 -178
-24 178 466
-467 -24
-467 34
24 -34 467
-468 -466
-468 -467
466 467 468
-469 24
-469 -187
-24 187 469
-470 -24
-470 35
24 -35 470
-471 -469
-471 -470
469 470 471
-472 24
-472 -196
-24 196 472
-473 -24
-473 36
24 -36 473
-474 -472
-474 -473
472 473 474
-475 24
-475 -205
-24 205 475
-476 -24
-476 37
24 -37 476
-477 -475
-477 -476
475 476 477
-478 24
-478 -214
-24 214 478
-479 -24
-479 38
24 -38 479
-480 -478
-480 -479
478 479 480
-481 24
-481 -223
-24 223 481
-482 -24
-482 39
24 -39 482
-483 -481
-483 -482
481 482 483
-484 24
-484 -232
-24 232 484
-485 -24
-485 40
24 -40 485
-486 -484
-486 -485
484 485 486
-487 24
-487 -241
-24 241 487
-488 -24
-488 41
24 -41 488
-489 -487
-489 -488
487 488 489
-490 24
-490 -250
-24 250 490
-491 -24
-491 42
24 -42 491
-492 -490
-492 -491
490 491 492
-493 24
-493 -259
-24 259 493
-494 -24
-494 43
24 -43 494
-495 -493
-495 -494
493 494 495
-496 24
-496 -268
-24 268 496
-497 -24
-497 44
24 -44 497
-498 -496
-498 -497
496 497 498
-499 24
-499 -277
-24 277 499
-500 -24
-500 45
24 -45 500
-501 -499
-501 -500
499 500 501
-502 24
-502 -286
-24 286 502
-503 -24
-503 46
24 -46 503
-504 -502
-504 -503
502 503 504
-505 24
-505 -295
-24 295 505
-506 -24
-506 47
24 -47 506
-507 -505
-507 -506
505 506 507
-508 24
-508 -304
-24 304 508
-509 -24
-509 48
24 -48 509
-510 -508
-510 -509
508 509 510
-511 24
-511 -313
-24 313 511
-512 -24
-512 49
24 -49 512
-513 -511
-513 -512
511 512 513
-514 24
-514 -322
-24 322 514
-515 -24
-515 50
24 -50 515
-516 -514
-516 -515
514 515 516
-517 24
-517 -331
-24 331 517
-518 -24
-518 51
24 -51 518
-519 -517
-519 -518
517 518 519
-520 24
-520 -340
-24 340 520
-521 -24
-521 52
24 -52 521
-522 -520
-522 -521
520 521 522
-523 24
-523 -349
-24 349 523
-524 -24
-524 53
24 -53 524
-525 -523
-525 -524
523 524 525
-526 24
-526 -358
-24 358 526
-527 -24
-527 54
24 -54 527
-528 -526
-528 -527
526 527 528
-529 24
-529 -367
-24 367 529
-530 -24
-530 55
24 -55 530
-531 -529
-531 -530
529 530 531
-532 24
-532 -376
-24 376 532
-533 -24
-533 56
24 -56 533
-534 -532
-534 -533
532 533 534
-535 24
-535 -385
-24 385 535
-536 -24
-536 57
24 -57 536
-537 -535
-537 -536
535 536 537
-538 24
-538 -394
-24 394 538
-539 -24
-539 58
24 -58 539
-540 -538
-540 -539
538 539 540
-541 24
-541 -403
-24 403 541
-542 -24
-542 59
24 -59 542
-543 -541
-543 -542
541 542 543
-544 24
-544 -412
-24 412 544
-545 -24
-545 60
24 -60 545
-546 -544
-546 -545
544 545 546
-547 24
-547 -421
-24 421 547
-548 -24
-548 61
24 -61 548
-549 -547
-549 -548
547 548 549
-550 24
-550 -430
-24 430 550
-551 -24
-551 62
24 -62 551
-552 -550
-552 -551
550 551 552
-553 24
-553 -439
-24 439 553
-554 1
-554 99
-1 -99 554
-555 -99
-555 100
99 -100 555
-556 -554
-556 -555
554 555 556
-557 2
-557 99
-2 -99 557
-558 -99
-558 -444
99 444 558
-559 -557
-559 -558
557 558 559
-560 3
-560 99
-3 -99 560
-561 -99
-561 -447
99 447 561
-562 -560
-562 -561
560 561 562
-563 4
-563 99
-4 -99 563
-564 -99
-564 -450
99 450 564
-565 -563
-565 -564
563 564 565
-566 5
-566 99
-5 -99 566
-567 -99
-567 -453
99 453 567
-568 -566
-568 -567
566 567 568
-569 6
-569 99
-6 -99 569
-570 -99
-570 -456
99 456 570
-571 -569
-571 -570
569 570 571
-572 7
-572 99
-7 -99 572
-573 -99
-573 -459
99 459 573
-574 -572
-574 -573
572 573 574
-575 8
-575 99
-8 -99 575
-576 -99
-576 -462
99 462 576
-577 -575
-577 -576
575 576 577
-578 9
-578 99
-9 -99 578
-579 -99
-579 -465
99 465 579
-580 -578
-580 -579
578 579 580
-581 10
-581 99
-10 -99 581
-582 -99
-582 -468
99 468 582
-583 -581
-583 -582
581 582 583
-584 11
-584 99
-11 -99 584
-585 -99
-585 -471
99 471 585
-586 -584
-586 -585
584 585 586
-587 12
-587 99
-12 -99 587
-588 -99
-588 -474
99 474 588
-589 -587
-589 -588
587 588 589
-590 13
-590 99
-13 -99 590
-591 -99
-591 -477
99 477 591
-592 -590
-592 -591
590 591 592
-593 14
-593 99
-14 -99 593
-594 -99
-594 -480
99 480 594
-595 -593
-595 -594
593 594 595
-596 15
-596 99
-15 -99 596
-597 -99
-597 -483
99 483 597
-598 -596
-598 -597
596 597 598
-599 16
-599 99
-16 -99 599
-600 -99
-600 -486
99 486 600
-601 -599
-601 -600
599 600 601
-602 17
-602 99
-17 -99 602
-603 -99
-603 -489
99 489 603
-604 -602
-604 -603
602 603 604
-605 18
-605 99
-18 -99 605
-606 -99
-606 -492
99 492 606
-607 -605
-607 -606
605 606 607
-608 19
-608 99
-19 -99 608
-609 -99
-609 -495
99 495 609
-610 -608
-610 -609
608 609 610
-611 20
-611 99
-20 -99 611
-612 -99
-612 -498
99 498 612
-613 -611
-613 -612
611 612 613
-614 21
-614 99
-21 -99 614
-615 -99
-615 -501
99 501 615
-616 -614
-616 -615
614 615 616
-617 22
-617 99
-22 -99 617
-618 -99
-618 -504
99 504 618
-619 -617
-619 -618
617 618 619
-620 23
-620 99
-23 -99 620
-621 -99
-621 -507
99 507 621
-622 -620
-622 -621
620 621 622
-623 -99
-623 -510
99 510 623
-624 -99
-624 -513
99 513 624
-625 -99
-625 -516
99 516 625
-626 -99
-626 -519
99 519 626
-627 -99
-627 -522
99 522 627
-628 -99
-628 -525
99 525 628
-629 -99
-629 -528
99 528 629
-630 -99
-630 -531
99 531 630
-631 -99
-631 -534
99 534 631
-632 -99
-632 -537
99 537 632
-633 -99
-633 -540
99 540 633
-634 -99
-634 -543
99 543 634
-635 -99
-635 -546
99 546 635
-636 -99
-636 -549
99 549 636
-637 -99
-637 -552
99 552 637
-638 -99
-638 553
99 -553 638
-639 -62
-639 441
62 -441 639
-640 24
-640 -639
-24 639 640
640
